
c turning on binary mode checking

c parsing input formula with 86 variables and 387 clauses

c finished parsing, read 2829 bytes from proof file

c detected empty clause; start verification via backward checking

c 137 of 387 clauses in core                            

c 68 of 219 lemmas in core using 456 resolution steps

c 0 RAT lemmas in core; 0 redundant literals in core lemmas

s VERIFIED

c verification time: 0.124 seconds
